p edge 50 323 20
v 1 5
v 3 14 15 29
v 3 12 32 45
v 3 16 38 39
v 3 4 25 44
v 3 24 35 36
v 3 18 22 47
v 2 37 43
v 3 17 23 27
v 3 7 46 49
v 3 21 31 34
v 1 40
v 1 20
v 2 3 11
v 4 6 28 30 48
v 2 10 50
v 2 2 26
v 4 1 9 13 19
v 2 8 33
v 2 41 42
e 1 2
e 1 6
e 1 7
e 1 15
e 1 22
e 1 23
e 1 25
e 1 30
e 1 37
e 1 39
e 1 45
e 2 5
e 2 13
e 2 18
e 2 19
e 2 21
e 2 22
e 2 28
e 2 31
e 2 33
e 2 34
e 2 40
e 2 41
e 2 44
e 2 50
e 3 11
e 3 19
e 3 21
e 3 24
e 3 27
e 3 30
e 3 31
e 3 35
e 3 39
e 3 43
e 3 45
e 3 50
e 4 5
e 4 7
e 4 12
e 4 15
e 4 18
e 4 29
e 4 30
e 4 35
e 4 41
e 4 45
e 4 46
e 4 48
e 5 7
e 5 11
e 5 14
e 5 17
e 5 19
e 5 20
e 5 29
e 5 32
e 5 34
e 5 36
e 5 38
e 5 40
e 5 41
e 5 44
e 5 46
e 5 49
e 6 10
e 6 16
e 6 23
e 6 28
e 6 30
e 6 35
e 6 39
e 6 40
e 7 9
e 7 11
e 7 14
e 7 17
e 7 19
e 7 21
e 7 22
e 7 23
e 7 24
e 7 28
e 7 29
e 7 32
e 7 34
e 7 36
e 7 38
e 7 42
e 7 43
e 7 44
e 7 48
e 8 11
e 8 15
e 8 20
e 8 24
e 8 28
e 8 34
e 8 35
e 8 41
e 8 50
e 9 12
e 9 14
e 9 18
e 9 22
e 9 27
e 9 28
e 9 31
e 9 36
e 9 41
e 9 48
e 9 49
e 10 15
e 10 17
e 10 21
e 10 22
e 10 27
e 10 33
e 10 37
e 10 40
e 10 41
e 10 47
e 10 48
e 11 13
e 11 17
e 11 23
e 11 24
e 11 25
e 11 28
e 11 29
e 11 40
e 11 41
e 11 42
e 12 16
e 12 22
e 12 31
e 12 33
e 12 34
e 12 36
e 12 39
e 13 17
e 13 18
e 13 19
e 13 20
e 13 22
e 13 23
e 13 24
e 13 25
e 13 30
e 13 32
e 13 38
e 13 39
e 13 40
e 14 18
e 14 22
e 14 26
e 14 31
e 14 37
e 14 42
e 14 43
e 14 44
e 14 48
e 14 50
e 15 19
e 15 20
e 15 23
e 15 25
e 15 26
e 15 47
e 15 49
e 16 19
e 16 24
e 16 26
e 16 30
e 16 36
e 16 39
e 16 45
e 17 20
e 17 25
e 17 28
e 17 30
e 17 34
e 17 40
e 17 50
e 18 19
e 18 20
e 18 26
e 18 33
e 18 36
e 18 38
e 18 42
e 18 49
e 18 50
e 19 20
e 19 21
e 19 22
e 19 24
e 19 29
e 19 30
e 19 34
e 19 39
e 19 46
e 19 48
e 20 23
e 20 30
e 20 31
e 20 32
e 20 37
e 20 41
e 20 43
e 20 47
e 20 50
e 21 22
e 21 32
e 21 42
e 21 44
e 21 46
e 21 47
e 22 23
e 22 26
e 22 30
e 22 31
e 22 39
e 22 42
e 22 43
e 23 25
e 23 26
e 23 28
e 23 38
e 23 49
e 24 28
e 24 34
e 24 43
e 24 45
e 25 31
e 25 34
e 25 35
e 25 38
e 25 40
e 25 44
e 25 45
e 25 46
e 25 49
e 25 50
e 26 27
e 26 38
e 26 42
e 26 46
e 27 32
e 27 35
e 27 37
e 27 40
e 27 43
e 27 46
e 28 31
e 28 33
e 28 38
e 28 41
e 28 46
e 28 48
e 29 31
e 29 35
e 29 44
e 29 46
e 29 48
e 30 33
e 30 34
e 30 43
e 30 50
e 31 33
e 31 36
e 31 37
e 31 38
e 31 43
e 31 47
e 31 48
e 32 39
e 32 42
e 32 44
e 32 46
e 32 49
e 33 36
e 33 39
e 33 42
e 33 43
e 33 44
e 33 47
e 33 48
e 34 40
e 34 42
e 34 44
e 35 36
e 35 44
e 35 47
e 36 38
e 36 41
e 36 45
e 36 49
e 37 39
e 37 44
e 37 46
e 38 40
e 38 44
e 38 49
e 39 41
e 39 45
e 39 50
e 40 42
e 40 43
e 41 42
e 42 44
e 42 46
e 42 47
e 42 50
e 43 44
e 44 46
e 44 47
e 44 50
e 45 48
e 45 49
e 45 50
e 46 49
e 47 48
